10J3M/DAT/10J3MUTL-16.dat
10 3
6.0115 6.0115
48.5578 48.5578
17.357 17.357
0.7889 0.7889
0.2984 0.2984
1.0476 1.0476
26.4947 26.4947
40.1737 40.1737
28.6111 28.6111
13.0584 13.0584
45.5998