10J3M/SOL/10J3MUTL-16.sol
solution status: optimal solution found
objective value:                              45.5998
x#1#1                                               1 	(obj:0)
x#2#1                               0.541855273509096 	(obj:0)
x#2#3                               0.458144726490904 	(obj:0)
x#4#2                                               1 	(obj:0)
x#7#2                               0.118567109648345 	(obj:0)
x#7#3                               0.881432890351655 	(obj:0)
x#8#1                               0.330489847835773 	(obj:0)
x#9#2                                               1 	(obj:0)
x#10#2                                              1 	(obj:0)
z                                             45.5998 	(obj:1)
